c defined variables: 
p cnf 85 57
a 1 2 3 4 5 6 7 8 9 10 11 12 13 0
d 14 3 7 8 0
d 15 3 11 0
d 16 5 9 12 0
d 17 2 4 0
d 18 7 0
d 19 2 6 8 9 11 13 0
d 20 4 7 9 0
d 21 1 2 4 0
d 22 1 3 5 6 7 8 10 0
d 23 3 0
d 24 1 3 11 0
d 25 6 0
d 26 2 8 13 0
d 27 4 8 11 13 0
-9 12 14 16 -19 0
4 -11 -16 -17 -19 0
-6 9 16 17 -19 0
2 -13 -14 19 20 0
1 -7 -14 19 21 0
1 5 16 19 21 0
-5 8 -14 16 -22 0
5 -8 -16 17 -22 0
3 -8 -17 19 -22 0
-3 -8 -15 -20 -22 0
-4 6 -17 -21 -22 0
1 -13 -19 -21 -22 0
2 6 -17 21 -22 0
4 10 19 21 -22 0
3 7 -15 -19 22 0
-2 -4 -17 -20 22 0
7 -9 -19 -20 22 0
-2 -4 16 -17 -23 0
2 13 -19 -20 -23 0
-6 -11 15 22 -23 0
2 7 19 -22 23 0
2 4 -19 -20 -24 0
-4 7 14 20 -24 0
-5 10 19 22 24 0
3 -7 22 -23 24 0
-2 -7 -18 -19 -25 0
1 4 14 21 -25 0
3 -11 15 21 -25 0
3 8 -15 -22 -25 0
3 10 -15 -22 -25 0
-5 -6 18 22 -25 0
2 -4 -19 -20 25 0
-1 8 -19 21 25 0
-6 8 19 21 25 0
-5 6 15 22 25 0
8 -10 -18 22 25 0
-3 6 19 22 25 0
4 7 -20 24 25 0
-8 -9 -15 -19 -26 0
5 7 19 -22 -26 0
2 4 -21 -22 -26 0
6 7 -19 22 -26 0
-9 13 -19 23 -26 0
2 11 17 19 26 0
-8 -9 16 -22 26 0
2 4 -17 24 26 0
2 7 -14 -25 26 0
-1 -6 -21 -25 26 0
4 8 21 25 26 0
3 -11 15 20 -27 0
2 -6 -19 -21 -27 0
3 -7 -18 22 -27 0
-7 11 14 -23 -27 0
-2 -7 -18 21 27 0
2 -11 -17 22 27 0
3 -10 -18 22 27 0
9 -11 20 25 27 0
